1657533600
1657548660
1657619820
1657636080
1657704840
1657719900
1657792980
1657807800
1657879320
1657894380
1658139840
1658224800
1658154000
1658240760
1658311080
1658326020
1658397660
1658413920
1658484360
1658500200
1658743440
1658759340
1658829600
1658844840
1658915880
1658932200
1659001980
1659019200
1659088920
1659103920
